DIMACS_lns/graph-1000-609.col
p edge 1000 1783
e 1 838
e 1 895
e 1 343
e 2 474
e 2 828
e 2 68
e 3 283
e 3 840
e 3 404
e 3 950
e 3 241
e 3 433
e 3 640
e 3 925
e 5 414
e 5 592
e 5 459
e 8 981
e 8 534
e 8 498
e 9 204
e 9 196
e 9 677
e 10 822
e 10 909
e 10 602
e 13 934
e 13 495
e 13 578
e 13 931
e 14 451
e 14 94
e 14 927
e 14 800
e 16 785
e 16 597
e 16 479
e 16 696
e 17 877
e 17 531
e 17 770
e 17 921
e 17 868
e 17 552
e 17 48
e 18 545
e 18 30
e 18 350
e 19 386
e 19 748
e 19 965
e 19 317
e 19 239
e 20 813
e 20 737
e 20 634
e 21 828
e 21 612
e 21 178
e 21 47
e 23 924
e 23 804
e 23 248
e 23 113
e 23 259
e 23 66
e 24 733
e 24 182
e 24 90
e 26 591
e 26 66
e 26 912
e 27 324
e 27 362
e 27 320
e 27 276
e 27 655
e 27 109
e 27 924
e 27 809
e 28 893
e 28 249
e 28 801
e 28 284
e 28 340
e 30 844
e 30 44
e 30 467
e 30 416
e 30 383
e 31 791
e 31 663
e 31 50
e 31 225
e 31 534
e 32 505
e 32 802
e 32 790
e 32 45
e 34 574
e 34 920
e 34 928
e 34 380
e 35 323
e 35 799
e 35 979
e 35 596
e 37 626
e 37 485
e 37 369
e 38 425
e 38 322
e 38 977
e 38 788
e 42 710
e 42 182
e 42 725
e 42 384
e 44 627
e 44 319
e 44 477
e 44 242
e 44 568
e 45 854
e 45 585
e 45 488
e 46 216
e 46 354
e 46 501
e 46 114
e 46 824
e 46 661
e 46 448
e 47 674
e 47 956
e 47 208
e 47 934
e 47 639
e 48 741
e 48 579
e 48 905
e 48 211
e 48 190
e 50 640
e 50 764
e 50 469
e 50 333
e 50 546
e 53 317
e 53 442
e 53 110
e 53 505
e 53 829
e 54 708
e 54 333
e 54 746
e 54 350
e 56 457
e 56 623
e 56 915
e 56 210
e 56 808
e 57 339
e 57 446
e 57 669
e 57 432
e 57 964
e 59 655
e 59 742
e 59 206
e 59 724
e 59 878
e 60 383
e 60 784
e 60 106
e 60 915
e 60 151
e 60 755
e 62 453
e 62 724
e 62 795
e 62 624
e 62 472
e 62 790
e 62 777
e 63 659
e 63 698
e 63 416
e 63 234
e 63 647
e 63 74
e 65 74
e 65 878
e 65 506
e 65 485
e 66 654
e 67 180
e 67 788
e 67 388
e 68 353
e 68 289
e 68 200
e 71 461
e 71 510
e 71 225
e 71 141
e 71 342
e 72 226
e 72 969
e 72 225
e 72 826
e 72 486
e 73 909
e 73 266
e 73 83
e 73 616
e 73 529
e 74 118
e 74 164
e 74 779
e 74 767
e 74 668
e 74 487
e 74 747
e 74 606
e 74 379
e 74 988
e 74 369
e 75 116
e 75 710
e 75 467
e 77 887
e 77 969
e 77 504
e 77 698
e 77 914
e 77 325
e 78 264
e 78 817
e 78 964
e 78 973
e 82 615
e 82 803
e 82 534
e 83 718
e 83 553
e 84 979
e 84 545
e 84 762
e 84 861
e 84 693
e 87 137
e 87 828
e 87 781
e 88 850
e 88 801
e 88 177
e 88 594
e 90 856
e 90 854
e 90 363
e 91 565
e 91 658
e 91 129
e 91 621
e 91 134
e 94 784
e 94 628
e 94 522
e 94 727
e 94 95
e 95 472
e 95 197
e 95 783
e 97 225
e 97 575
e 97 137
e 98 913
e 98 822
e 98 479
e 99 118
e 99 809
e 99 640
e 99 890
e 99 766
e 99 221
e 100 285
e 100 259
e 100 148
e 100 812
e 101 606
e 101 891
e 101 264
e 101 503
e 101 379
e 101 639
e 105 944
e 105 890
e 105 267
e 105 471
e 105 872
e 106 450
e 106 941
e 106 750
e 106 222
e 106 287
e 106 758
e 107 247
e 107 719
e 107 636
e 107 397
e 108 797
e 108 628
e 108 942
e 108 614
e 108 550
e 109 871
e 109 634
e 109 473
e 109 727
e 110 557
e 110 598
e 110 839
e 111 343
e 111 947
e 111 850
e 112 764
e 112 125
e 112 465
e 113 119
e 113 305
e 113 695
e 113 412
e 113 377
e 114 980
e 114 144
e 114 581
e 115 873
e 115 137
e 115 685
e 115 643
e 115 234
e 116 200
e 116 629
e 116 442
e 116 208
e 116 845
e 116 607
e 116 836
e 118 359
e 118 746
e 119 587
e 119 395
e 120 591
e 120 301
e 120 612
e 120 778
e 120 331
e 121 322
e 121 153
e 121 559
e 122 301
e 122 930
e 122 767
e 122 831
e 122 890
e 123 839
e 123 209
e 123 730
e 123 344
e 125 545
e 125 641
e 125 941
e 126 956
e 126 344
e 126 392
e 126 437
e 127 761
e 127 926
e 127 716
e 127 955
e 128 512
e 128 731
e 128 501
e 128 845
e 128 538
e 128 440
e 128 432
e 128 953
e 129 343
e 129 371
e 129 687
e 129 720
e 129 559
e 129 417
e 129 424
e 131 199
e 131 190
e 131 731
e 133 575
e 133 627
e 133 459
e 134 461
e 134 400
e 134 489
e 134 398
e 135 665
e 135 529
e 135 732
e 135 695
e 136 248
e 136 331
e 136 387
e 136 545
e 137 582
e 140 627
e 140 358
e 140 878
e 140 727
e 141 831
e 141 587
e 142 192
e 142 624
e 142 657
e 142 788
e 142 376
e 144 369
e 144 182
e 145 953
e 145 890
e 145 611
e 145 253
e 146 759
e 146 909
e 146 405
e 146 929
e 148 204
e 148 893
e 148 983
e 150 987
e 150 929
e 150 151
e 151 824
e 151 936
e 151 715
e 151 609
e 151 521
e 153 244
e 153 969
e 153 549
e 153 490
e 153 683
e 154 988
e 154 303
e 154 306
e 154 944
e 155 470
e 155 637
e 155 1000
e 155 445
e 155 741
e 156 891
e 156 821
e 156 730
e 158 224
e 158 790
e 158 727
e 158 671
e 158 174
e 158 230
e 159 580
e 159 923
e 159 412
e 159 386
e 159 808
e 160 465
e 160 615
e 160 341
e 160 177
e 160 691
e 161 991
e 161 848
e 161 953
e 162 705
e 162 493
e 162 833
e 162 738
e 163 601
e 163 433
e 163 259
e 164 550
e 164 941
e 164 800
e 164 818
e 164 802
e 164 773
e 164 618
e 165 742
e 165 648
e 165 979
e 166 559
e 166 538
e 166 677
e 166 623
e 166 996
e 167 583
e 167 926
e 167 889
e 167 812
e 167 372
e 171 313
e 171 705
e 171 213
e 171 912
e 172 247
e 172 677
e 172 1000
e 172 620
e 172 861
e 172 588
e 172 505
e 174 850
e 174 221
e 175 639
e 175 254
e 175 218
e 175 565
e 175 790
e 175 412
e 175 515
e 176 923
e 176 464
e 176 646
e 176 281
e 176 339
e 176 255
e 177 362
e 177 439
e 177 483
e 177 184
e 177 802
e 177 822
e 178 201
e 178 362
e 178 994
e 178 341
e 180 364
e 180 512
e 180 932
e 180 959
e 181 681
e 181 494
e 181 967
e 181 459
e 182 605
e 182 810
e 182 332
e 184 300
e 184 205
e 184 873
e 184 582
e 184 252
e 185 209
e 185 365
e 185 303
e 185 473
e 186 668
e 186 550
e 186 488
e 186 760
e 186 845
e 189 625
e 189 760
e 189 313
e 190 297
e 190 566
e 191 449
e 191 546
e 191 596
e 192 823
e 192 947
e 192 825
e 192 329
e 192 225
e 192 779
e 192 925
e 193 462
e 193 628
e 193 440
e 193 408
e 193 657
e 193 569
e 193 987
e 193 333
e 194 295
e 194 445
e 194 992
e 194 204
e 194 550
e 194 661
e 195 424
e 195 566
e 195 950
e 195 459
e 196 767
e 196 548
e 196 952
e 197 881
e 197 542
e 197 931
e 198 433
e 198 789
e 198 868
e 199 305
e 199 659
e 200 435
e 201 449
e 201 575
e 201 309
e 201 393
e 201 501
e 204 594
e 204 476
e 205 762
e 205 312
e 205 214
e 205 896
e 205 691
e 205 328
e 206 830
e 206 811
e 206 366
e 207 974
e 207 505
e 207 488
e 207 889
e 207 928
e 208 330
e 208 311
e 208 400
e 208 487
e 208 695
e 208 895
e 209 428
e 209 253
e 209 670
e 209 912
e 209 422
e 209 967
e 210 701
e 210 770
e 211 485
e 211 778
e 211 552
e 211 531
e 211 838
e 213 479
e 213 561
e 214 510
e 214 679
e 214 296
e 216 332
e 216 357
e 216 679
e 217 414
e 217 220
e 217 900
e 218 412
e 218 937
e 218 372
e 218 421
e 218 677
e 219 509
e 219 803
e 219 986
e 219 581
e 220 473
e 220 286
e 221 582
e 222 372
e 222 287
e 222 827
e 222 709
e 222 675
e 222 799
e 222 474
e 222 308
e 224 638
e 224 587
e 224 772
e 224 502
e 224 750
e 224 714
e 225 782
e 225 675
e 225 252
e 226 988
e 226 354
e 226 451
e 226 944
e 229 802
e 229 310
e 229 431
e 229 490
e 229 387
e 230 251
e 230 973
e 230 594
e 230 542
e 231 436
e 231 977
e 231 799
e 234 991
e 234 870
e 234 729
e 234 823
e 234 899
e 234 871
e 234 659
e 234 638
e 235 716
e 235 295
e 235 893
e 235 985
e 235 651
e 237 455
e 237 313
e 237 507
e 238 505
e 238 371
e 238 679
e 238 439
e 239 791
e 239 512
e 239 405
e 239 639
e 240 457
e 240 339
e 240 830
e 240 679
e 240 643
e 241 419
e 241 535
e 241 291
e 241 900
e 242 621
e 242 326
e 242 323
e 242 743
e 243 873
e 243 718
e 243 908
e 243 827
e 243 875
e 244 258
e 244 869
e 244 905
e 244 807
e 246 449
e 246 859
e 246 321
e 247 709
e 247 882
e 247 363
e 248 376
e 248 577
e 248 646
e 248 599
e 249 940
e 249 986
e 249 290
e 251 438
e 251 305
e 252 493
e 253 504
e 253 324
e 254 660
e 254 262
e 254 589
e 255 725
e 255 507
e 255 585
e 255 893
e 255 578
e 255 395
e 256 375
e 256 258
e 256 737
e 257 754
e 257 536
e 257 312
e 257 359
e 258 591
e 258 625
e 259 637
e 259 530
e 259 860
e 259 477
e 259 549
e 259 977
e 259 974
e 260 891
e 260 696
e 260 874
e 260 965
e 262 364
e 262 309
e 263 851
e 263 381
e 263 568
e 263 336
e 263 549
e 263 940
e 264 278
e 264 893
e 264 747
e 264 939
e 264 863
e 266 521
e 266 755
e 266 393
e 266 554
e 267 296
e 267 607
e 267 907
e 267 307
e 273 758
e 273 900
e 273 539
e 274 630
e 274 380
e 274 719
e 276 450
e 276 504
e 276 754
e 276 701
e 276 932
e 277 839
e 277 508
e 277 938
e 277 729
e 277 583
e 278 663
e 278 647
e 278 343
e 278 806
e 279 511
e 279 958
e 279 322
e 279 917
e 280 777
e 280 926
e 280 785
e 280 437
e 280 959
e 280 608
e 281 953
e 281 845
e 283 773
e 283 551
e 283 554
e 283 305
e 283 885
e 283 802
e 284 890
e 284 421
e 284 681
e 285 871
e 285 422
e 285 349
e 285 364
e 285 720
e 286 358
e 286 871
e 287 701
e 287 400
e 289 441
e 289 704
e 290 968
e 290 344
e 290 889
e 291 627
e 291 414
e 291 387
e 291 917
e 291 588
e 293 833
e 293 304
e 293 498
e 295 381
e 295 405
e 295 537
e 296 725
e 296 986
e 296 635
e 296 340
e 297 627
e 297 747
e 297 387
e 298 379
e 298 954
e 298 304
e 298 528
e 299 359
e 299 693
e 299 631
e 300 376
e 300 453
e 301 979
e 303 950
e 303 574
e 303 453
e 303 376
e 304 968
e 304 666
e 304 554
e 304 891
e 304 716
e 304 881
e 304 620
e 304 798
e 304 549
e 305 673
e 306 583
e 306 437
e 306 570
e 306 406
e 307 636
e 307 715
e 307 388
e 307 408
e 307 651
e 307 515
e 308 798
e 308 727
e 308 353
e 308 410
e 308 666
e 308 912
e 308 975
e 308 721
e 309 889
e 309 607
e 309 890
e 310 741
e 310 535
e 310 540
e 311 961
e 311 788
e 311 477
e 312 934
e 312 975
e 313 673
e 313 323
e 314 635
e 314 554
e 314 934
e 314 830
e 314 634
e 316 366
e 316 674
e 316 907
e 317 690
e 317 406
e 319 571
e 319 424
e 320 875
e 320 800
e 321 926
e 321 621
e 321 896
e 321 762
e 322 976
e 322 526
e 322 622
e 323 942
e 323 696
e 323 384
e 324 483
e 324 541
e 324 987
e 325 609
e 325 614
e 326 630
e 326 901
e 327 659
e 327 383
e 327 791
e 327 333
e 328 581
e 328 422
e 329 372
e 329 607
e 329 541
e 330 408
e 330 476
e 330 535
e 330 568
e 331 826
e 332 794
e 332 781
e 332 930
e 333 848
e 333 481
e 333 486
e 335 716
e 335 769
e 335 902
e 335 861
e 336 930
e 336 629
e 336 351
e 339 922
e 339 417
e 340 475
e 341 562
e 342 838
e 342 657
e 343 802
e 345 932
e 345 733
e 345 967
e 347 618
e 347 991
e 347 685
e 348 767
e 348 474
e 348 380
e 349 797
e 349 686
e 349 656
e 349 623
e 350 443
e 350 409
e 350 422
e 350 761
e 350 804
e 351 691
e 351 677
e 351 719
e 351 527
e 353 624
e 353 444
e 353 742
e 353 594
e 354 721
e 354 828
e 354 917
e 355 429
e 355 686
e 355 834
e 357 636
e 357 801
e 357 611
e 357 872
e 357 557
e 357 530
e 357 546
e 357 591
e 358 369
e 358 897
e 358 616
e 358 421
e 359 737
e 359 799
e 359 503
e 362 860
e 362 861
e 363 898
e 363 919
e 364 724
e 364 877
e 364 626
e 365 501
e 365 589
e 366 947
e 366 777
e 366 900
e 366 924
e 368 462
e 368 926
e 368 382
e 369 561
e 371 788
e 371 721
e 372 570
e 372 621
e 372 783
e 372 517
e 372 806
e 375 561
e 375 569
e 375 463
e 376 609
e 376 691
e 376 393
e 377 926
e 377 511
e 377 807
e 377 663
e 377 800
e 377 732
e 377 947
e 377 441
e 377 403
e 379 844
e 379 394
e 380 636
e 380 567
e 381 981
e 382 884
e 382 485
e 383 813
e 383 549
e 383 988
e 384 627
e 384 592
e 386 395
e 386 666
e 386 455
e 386 438
e 386 931
e 387 494
e 388 403
e 389 538
e 389 609
e 389 828
e 392 483
e 392 691
e 393 397
e 393 752
e 394 795
e 394 852
e 395 623
e 395 927
e 397 836
e 397 732
e 397 873
e 398 831
e 398 406
e 398 806
e 400 826
e 402 820
e 402 619
e 402 429
e 403 990
e 404 823
e 404 940
e 404 899
e 404 665
e 405 602
e 405 727
e 405 836
e 406 996
e 406 922
e 408 677
e 408 590
e 409 575
e 409 891
e 410 673
e 410 687
e 411 820
e 411 499
e 411 786
e 411 500
e 412 588
e 412 566
e 412 829
e 414 441
e 414 760
e 414 503
e 416 647
e 416 442
e 416 665
e 416 908
e 417 904
e 417 627
e 419 577
e 419 646
e 421 561
e 421 992
e 422 975
e 422 650
e 425 436
e 425 597
e 425 541
e 425 493
e 428 442
e 428 597
e 428 531
e 428 882
e 428 938
e 429 599
e 429 938
e 429 873
e 429 926
e 431 873
e 431 685
e 431 811
e 431 614
e 431 495
e 432 818
e 433 693
e 433 981
e 435 563
e 435 675
e 435 673
e 435 448
e 435 444
e 435 790
e 436 535
e 436 591
e 436 856
e 437 536
e 437 904
e 438 591
e 438 529
e 439 952
e 439 769
e 439 850
e 440 920
e 441 525
e 441 996
e 441 512
e 442 450
e 442 810
e 443 851
e 443 629
e 443 847
e 444 820
e 444 810
e 444 551
e 445 723
e 445 975
e 446 781
e 446 502
e 448 658
e 450 872
e 450 917
e 451 719
e 451 929
e 451 951
e 451 557
e 453 881
e 453 991
e 453 808
e 455 690
e 455 936
e 455 952
e 456 462
e 456 622
e 456 873
e 457 848
e 457 534
e 457 574
e 457 579
e 457 625
e 459 531
e 459 461
e 461 873
e 462 673
e 463 939
e 463 801
e 463 910
e 464 808
e 464 718
e 465 807
e 465 746
e 465 785
e 467 909
e 467 926
e 467 884
e 467 607
e 469 812
e 469 968
e 470 592
e 470 873
e 470 951
e 471 626
e 471 722
e 471 714
e 472 920
e 472 709
e 472 650
e 472 631
e 473 500
e 473 686
e 473 950
e 474 507
e 474 614
e 475 561
e 475 701
e 475 754
e 475 845
e 476 577
e 479 930
e 479 573
e 479 954
e 481 698
e 481 937
e 481 505
e 481 575
e 485 569
e 485 691
e 486 503
e 486 612
e 486 833
e 487 686
e 487 944
e 487 895
e 488 637
e 488 836
e 489 942
e 489 788
e 490 869
e 490 640
e 490 614
e 490 836
e 493 582
e 493 506
e 493 611
e 494 528
e 494 738
e 495 763
e 495 760
e 495 708
e 498 931
e 499 518
e 499 864
e 500 752
e 501 790
e 501 767
e 502 795
e 502 977
e 502 959
e 503 890
e 504 518
e 504 659
e 505 509
e 505 882
e 505 861
e 506 853
e 506 510
e 506 882
e 507 634
e 507 856
e 507 968
e 507 750
e 508 887
e 508 931
e 509 823
e 509 655
e 510 637
e 510 798
e 510 583
e 511 837
e 512 825
e 512 872
e 515 914
e 517 763
e 517 649
e 518 778
e 518 831
e 518 893
e 521 920
e 521 834
e 521 572
e 522 695
e 522 589
e 522 681
e 522 709
e 522 986
e 525 921
e 525 712
e 525 742
e 525 637
e 525 643
e 526 944
e 526 561
e 526 839
e 526 655
e 527 729
e 527 578
e 527 712
e 528 953
e 528 608
e 528 685
e 529 590
e 529 690
e 529 612
e 530 545
e 531 856
e 534 968
e 534 937
e 535 951
e 535 738
e 536 671
e 536 696
e 537 686
e 537 764
e 538 929
e 538 821
e 538 647
e 539 915
e 539 579
e 539 729
e 540 737
e 540 790
e 540 563
e 541 585
e 542 889
e 542 977
e 542 797
e 545 1000
e 545 597
e 545 778
e 546 647
e 546 896
e 547 777
e 547 650
e 547 992
e 548 686
e 548 827
e 549 552
e 549 762
e 550 928
e 550 648
e 551 602
e 551 616
e 552 870
e 553 961
e 553 566
e 557 870
e 559 582
e 559 625
e 559 866
e 561 982
e 562 901
e 562 683
e 562 852
e 563 836
e 565 878
e 565 973
e 565 830
e 566 892
e 566 799
e 566 663
e 566 929
e 566 580
e 567 671
e 567 902
e 567 904
e 569 797
e 570 643
e 570 721
e 571 897
e 571 719
e 571 660
e 571 624
e 571 781
e 572 589
e 572 705
e 573 956
e 573 731
e 573 914
e 573 668
e 574 823
e 574 919
e 574 887
e 575 599
e 577 705
e 577 766
e 577 608
e 577 899
e 578 827
e 579 877
e 579 666
e 580 818
e 583 801
e 587 870
e 587 907
e 588 660
e 588 658
e 588 790
e 589 656
e 590 639
e 590 902
e 592 706
e 594 638
e 596 611
e 597 964
e 597 812
e 597 701
e 598 806
e 598 851
e 598 715
e 599 681
e 601 864
e 601 821
e 601 694
e 605 661
e 605 919
e 606 848
e 607 661
e 607 814
e 607 819
e 607 932
e 608 670
e 609 875
e 609 905
e 609 784
e 609 693
e 609 974
e 611 947
e 614 821
e 614 930
e 615 934
e 616 826
e 618 782
e 618 953
e 618 674
e 618 902
e 618 892
e 619 683
e 619 748
e 620 803
e 621 902
e 622 968
e 624 866
e 625 863
e 625 848
e 626 981
e 627 928
e 627 803
e 629 913
e 630 760
e 631 813
e 634 750
e 634 908
e 635 825
e 635 790
e 635 768
e 635 743
e 636 843
e 637 878
e 637 928
e 638 795
e 638 822
e 640 847
e 640 816
e 641 662
e 641 921
e 641 797
e 643 648
e 646 856
e 647 710
e 648 798
e 648 656
e 648 784
e 649 954
e 649 854
e 650 840
e 650 953
e 651 715
e 651 994
e 651 859
e 651 670
e 654 690
e 654 839
e 654 722
e 657 953
e 658 917
e 658 893
e 659 864
e 659 683
e 661 958
e 662 819
e 662 776
e 662 980
e 665 768
e 665 934
e 668 754
e 669 818
e 669 779
e 670 690
e 670 743
e 671 723
e 671 955
e 673 976
e 673 776
e 674 706
e 674 811
e 674 807
e 674 896
e 674 854
e 674 974
e 675 938
e 675 811
e 675 834
e 677 922
e 677 958
e 677 869
e 679 982
e 681 704
e 685 818
e 686 982
e 687 773
e 690 847
e 690 821
e 693 837
e 694 730
e 694 926
e 695 897
e 695 895
e 695 834
e 696 710
e 696 844
e 701 859
e 704 760
e 704 773
e 705 975
e 706 959
e 706 730
e 708 831
e 710 766
e 710 994
e 712 981
e 712 890
e 714 868
e 715 767
e 715 722
e 715 929
e 718 738
e 719 941
e 719 856
e 720 812
e 721 783
e 723 792
e 723 992
e 723 786
e 723 892
e 725 934
e 725 817
e 725 768
e 725 973
e 727 820
e 727 873
e 730 919
e 731 979
e 731 760
e 732 834
e 733 967
e 737 811
e 737 759
e 738 994
e 741 869
e 741 822
e 741 757
e 742 829
e 747 912
e 747 777
e 748 923
e 749 895
e 749 861
e 749 800
e 750 975
e 750 881
e 750 922
e 752 896
e 752 1000
e 755 764
e 757 873
e 757 893
e 758 845
e 758 766
e 759 860
e 759 808
e 761 772
e 762 871
e 763 964
e 764 931
e 768 778
e 768 979
e 769 824
e 770 859
e 772 924
e 772 847
e 772 989
e 772 792
e 776 885
e 777 900
e 777 803
e 778 990
e 779 929
e 779 875
e 781 983
e 782 822
e 786 942
e 786 798
e 788 852
e 788 901
e 789 928
e 789 969
e 791 900
e 792 837
e 792 804
e 794 816
e 794 988
e 797 901
e 801 990
e 801 930
e 802 991
e 806 932
e 807 976
e 809 959
e 809 927
e 810 814
e 811 950
e 812 929
e 813 874
e 814 890
e 816 955
e 817 863
e 818 953
e 819 898
e 819 973
e 822 834
e 822 914
e 822 985
e 824 921
e 825 872
e 830 941
e 831 896
e 831 895
e 833 953
e 834 848
e 836 937
e 838 901
e 838 920
e 839 958
e 839 989
e 840 988
e 840 874
e 843 981
e 843 936
e 844 988
e 848 884
e 850 926
e 853 873
e 853 927
e 866 885
e 866 930
e 868 912
e 868 923
e 870 992
e 874 921
e 877 891
e 877 915
e 884 994
e 884 951
e 885 923
e 889 989
e 891 980
e 892 983
e 898 912
e 902 938
e 904 952
e 910 988
e 910 951
e 913 988
e 914 981
e 924 932
e 925 956
e 930 961
e 932 937
e 932 980
e 938 965
e 938 977
e 939 985
e 950 961
e 968 992
e 976 990
e 981 982
