txt_Ins/graph-1000-609.txt
n 1000
e 0 837
e 0 894
e 0 342
e 1 473
e 1 827
e 1 67
e 2 282
e 2 839
e 2 403
e 2 949
e 2 240
e 2 432
e 2 639
e 2 924
e 4 413
e 4 591
e 4 458
e 7 980
e 7 533
e 7 497
e 8 203
e 8 195
e 8 676
e 9 821
e 9 908
e 9 601
e 12 933
e 12 494
e 12 577
e 12 930
e 13 450
e 13 93
e 13 926
e 13 799
e 15 784
e 15 596
e 15 478
e 15 695
e 16 876
e 16 530
e 16 769
e 16 920
e 16 867
e 16 551
e 16 47
e 17 544
e 17 29
e 17 349
e 18 385
e 18 747
e 18 964
e 18 316
e 18 238
e 19 812
e 19 736
e 19 633
e 20 827
e 20 611
e 20 177
e 20 46
e 22 923
e 22 803
e 22 247
e 22 112
e 22 258
e 22 65
e 23 732
e 23 181
e 23 89
e 25 590
e 25 65
e 25 911
e 26 323
e 26 361
e 26 319
e 26 275
e 26 654
e 26 108
e 26 923
e 26 808
e 27 892
e 27 248
e 27 800
e 27 283
e 27 339
e 29 843
e 29 43
e 29 466
e 29 415
e 29 382
e 30 790
e 30 662
e 30 49
e 30 224
e 30 533
e 31 504
e 31 801
e 31 789
e 31 44
e 33 573
e 33 919
e 33 927
e 33 379
e 34 322
e 34 798
e 34 978
e 34 595
e 36 625
e 36 484
e 36 368
e 37 424
e 37 321
e 37 976
e 37 787
e 41 709
e 41 181
e 41 724
e 41 383
e 43 626
e 43 318
e 43 476
e 43 241
e 43 567
e 44 853
e 44 584
e 44 487
e 45 215
e 45 353
e 45 500
e 45 113
e 45 823
e 45 660
e 45 447
e 46 673
e 46 955
e 46 207
e 46 933
e 46 638
e 47 740
e 47 578
e 47 904
e 47 210
e 47 189
e 49 639
e 49 763
e 49 468
e 49 332
e 49 545
e 52 316
e 52 441
e 52 109
e 52 504
e 52 828
e 53 707
e 53 332
e 53 745
e 53 349
e 55 456
e 55 622
e 55 914
e 55 209
e 55 807
e 56 338
e 56 445
e 56 668
e 56 431
e 56 963
e 58 654
e 58 741
e 58 205
e 58 723
e 58 877
e 59 382
e 59 783
e 59 105
e 59 914
e 59 150
e 59 754
e 61 452
e 61 723
e 61 794
e 61 623
e 61 471
e 61 789
e 61 776
e 62 658
e 62 697
e 62 415
e 62 233
e 62 646
e 62 73
e 64 73
e 64 877
e 64 505
e 64 484
e 65 653
e 66 179
e 66 787
e 66 387
e 67 352
e 67 288
e 67 199
e 70 460
e 70 509
e 70 224
e 70 140
e 70 341
e 71 225
e 71 968
e 71 224
e 71 825
e 71 485
e 72 908
e 72 265
e 72 82
e 72 615
e 72 528
e 73 117
e 73 163
e 73 778
e 73 766
e 73 667
e 73 486
e 73 746
e 73 605
e 73 378
e 73 987
e 73 368
e 74 115
e 74 709
e 74 466
e 76 886
e 76 968
e 76 503
e 76 697
e 76 913
e 76 324
e 77 263
e 77 816
e 77 963
e 77 972
e 81 614
e 81 802
e 81 533
e 82 717
e 82 552
e 83 978
e 83 544
e 83 761
e 83 860
e 83 692
e 86 136
e 86 827
e 86 780
e 87 849
e 87 800
e 87 176
e 87 593
e 89 855
e 89 853
e 89 362
e 90 564
e 90 657
e 90 128
e 90 620
e 90 133
e 93 783
e 93 627
e 93 521
e 93 726
e 93 94
e 94 471
e 94 196
e 94 782
e 96 224
e 96 574
e 96 136
e 97 912
e 97 821
e 97 478
e 98 117
e 98 808
e 98 639
e 98 889
e 98 765
e 98 220
e 99 284
e 99 258
e 99 147
e 99 811
e 100 605
e 100 890
e 100 263
e 100 502
e 100 378
e 100 638
e 104 943
e 104 889
e 104 266
e 104 470
e 104 871
e 105 449
e 105 940
e 105 749
e 105 221
e 105 286
e 105 757
e 106 246
e 106 718
e 106 635
e 106 396
e 107 796
e 107 627
e 107 941
e 107 613
e 107 549
e 108 870
e 108 633
e 108 472
e 108 726
e 109 556
e 109 597
e 109 838
e 110 342
e 110 946
e 110 849
e 111 763
e 111 124
e 111 464
e 112 118
e 112 304
e 112 694
e 112 411
e 112 376
e 113 979
e 113 143
e 113 580
e 114 872
e 114 136
e 114 684
e 114 642
e 114 233
e 115 199
e 115 628
e 115 441
e 115 207
e 115 844
e 115 606
e 115 835
e 117 358
e 117 745
e 118 586
e 118 394
e 119 590
e 119 300
e 119 611
e 119 777
e 119 330
e 120 321
e 120 152
e 120 558
e 121 300
e 121 929
e 121 766
e 121 830
e 121 889
e 122 838
e 122 208
e 122 729
e 122 343
e 124 544
e 124 640
e 124 940
e 125 955
e 125 343
e 125 391
e 125 436
e 126 760
e 126 925
e 126 715
e 126 954
e 127 511
e 127 730
e 127 500
e 127 844
e 127 537
e 127 439
e 127 431
e 127 952
e 128 342
e 128 370
e 128 686
e 128 719
e 128 558
e 128 416
e 128 423
e 130 198
e 130 189
e 130 730
e 132 574
e 132 626
e 132 458
e 133 460
e 133 399
e 133 488
e 133 397
e 134 664
e 134 528
e 134 731
e 134 694
e 135 247
e 135 330
e 135 386
e 135 544
e 136 581
e 139 626
e 139 357
e 139 877
e 139 726
e 140 830
e 140 586
e 141 191
e 141 623
e 141 656
e 141 787
e 141 375
e 143 368
e 143 181
e 144 952
e 144 889
e 144 610
e 144 252
e 145 758
e 145 908
e 145 404
e 145 928
e 147 203
e 147 892
e 147 982
e 149 986
e 149 928
e 149 150
e 150 823
e 150 935
e 150 714
e 150 608
e 150 520
e 152 243
e 152 968
e 152 548
e 152 489
e 152 682
e 153 987
e 153 302
e 153 305
e 153 943
e 154 469
e 154 636
e 154 999
e 154 444
e 154 740
e 155 890
e 155 820
e 155 729
e 157 223
e 157 789
e 157 726
e 157 670
e 157 173
e 157 229
e 158 579
e 158 922
e 158 411
e 158 385
e 158 807
e 159 464
e 159 614
e 159 340
e 159 176
e 159 690
e 160 990
e 160 847
e 160 952
e 161 704
e 161 492
e 161 832
e 161 737
e 162 600
e 162 432
e 162 258
e 163 549
e 163 940
e 163 799
e 163 817
e 163 801
e 163 772
e 163 617
e 164 741
e 164 647
e 164 978
e 165 558
e 165 537
e 165 676
e 165 622
e 165 995
e 166 582
e 166 925
e 166 888
e 166 811
e 166 371
e 170 312
e 170 704
e 170 212
e 170 911
e 171 246
e 171 676
e 171 999
e 171 619
e 171 860
e 171 587
e 171 504
e 173 849
e 173 220
e 174 638
e 174 253
e 174 217
e 174 564
e 174 789
e 174 411
e 174 514
e 175 922
e 175 463
e 175 645
e 175 280
e 175 338
e 175 254
e 176 361
e 176 438
e 176 482
e 176 183
e 176 801
e 176 821
e 177 200
e 177 361
e 177 993
e 177 340
e 179 363
e 179 511
e 179 931
e 179 958
e 180 680
e 180 493
e 180 966
e 180 458
e 181 604
e 181 809
e 181 331
e 183 299
e 183 204
e 183 872
e 183 581
e 183 251
e 184 208
e 184 364
e 184 302
e 184 472
e 185 667
e 185 549
e 185 487
e 185 759
e 185 844
e 188 624
e 188 759
e 188 312
e 189 296
e 189 565
e 190 448
e 190 545
e 190 595
e 191 822
e 191 946
e 191 824
e 191 328
e 191 224
e 191 778
e 191 924
e 192 461
e 192 627
e 192 439
e 192 407
e 192 656
e 192 568
e 192 986
e 192 332
e 193 294
e 193 444
e 193 991
e 193 203
e 193 549
e 193 660
e 194 423
e 194 565
e 194 949
e 194 458
e 195 766
e 195 547
e 195 951
e 196 880
e 196 541
e 196 930
e 197 432
e 197 788
e 197 867
e 198 304
e 198 658
e 199 434
e 200 448
e 200 574
e 200 308
e 200 392
e 200 500
e 203 593
e 203 475
e 204 761
e 204 311
e 204 213
e 204 895
e 204 690
e 204 327
e 205 829
e 205 810
e 205 365
e 206 973
e 206 504
e 206 487
e 206 888
e 206 927
e 207 329
e 207 310
e 207 399
e 207 486
e 207 694
e 207 894
e 208 427
e 208 252
e 208 669
e 208 911
e 208 421
e 208 966
e 209 700
e 209 769
e 210 484
e 210 777
e 210 551
e 210 530
e 210 837
e 212 478
e 212 560
e 213 509
e 213 678
e 213 295
e 215 331
e 215 356
e 215 678
e 216 413
e 216 219
e 216 899
e 217 411
e 217 936
e 217 371
e 217 420
e 217 676
e 218 508
e 218 802
e 218 985
e 218 580
e 219 472
e 219 285
e 220 581
e 221 371
e 221 286
e 221 826
e 221 708
e 221 674
e 221 798
e 221 473
e 221 307
e 223 637
e 223 586
e 223 771
e 223 501
e 223 749
e 223 713
e 224 781
e 224 674
e 224 251
e 225 987
e 225 353
e 225 450
e 225 943
e 228 801
e 228 309
e 228 430
e 228 489
e 228 386
e 229 250
e 229 972
e 229 593
e 229 541
e 230 435
e 230 976
e 230 798
e 233 990
e 233 869
e 233 728
e 233 822
e 233 898
e 233 870
e 233 658
e 233 637
e 234 715
e 234 294
e 234 892
e 234 984
e 234 650
e 236 454
e 236 312
e 236 506
e 237 504
e 237 370
e 237 678
e 237 438
e 238 790
e 238 511
e 238 404
e 238 638
e 239 456
e 239 338
e 239 829
e 239 678
e 239 642
e 240 418
e 240 534
e 240 290
e 240 899
e 241 620
e 241 325
e 241 322
e 241 742
e 242 872
e 242 717
e 242 907
e 242 826
e 242 874
e 243 257
e 243 868
e 243 904
e 243 806
e 245 448
e 245 858
e 245 320
e 246 708
e 246 881
e 246 362
e 247 375
e 247 576
e 247 645
e 247 598
e 248 939
e 248 985
e 248 289
e 250 437
e 250 304
e 251 492
e 252 503
e 252 323
e 253 659
e 253 261
e 253 588
e 254 724
e 254 506
e 254 584
e 254 892
e 254 577
e 254 394
e 255 374
e 255 257
e 255 736
e 256 753
e 256 535
e 256 311
e 256 358
e 257 590
e 257 624
e 258 636
e 258 529
e 258 859
e 258 476
e 258 548
e 258 976
e 258 973
e 259 890
e 259 695
e 259 873
e 259 964
e 261 363
e 261 308
e 262 850
e 262 380
e 262 567
e 262 335
e 262 548
e 262 939
e 263 277
e 263 892
e 263 746
e 263 938
e 263 862
e 265 520
e 265 754
e 265 392
e 265 553
e 266 295
e 266 606
e 266 906
e 266 306
e 272 757
e 272 899
e 272 538
e 273 629
e 273 379
e 273 718
e 275 449
e 275 503
e 275 753
e 275 700
e 275 931
e 276 838
e 276 507
e 276 937
e 276 728
e 276 582
e 277 662
e 277 646
e 277 342
e 277 805
e 278 510
e 278 957
e 278 321
e 278 916
e 279 776
e 279 925
e 279 784
e 279 436
e 279 958
e 279 607
e 280 952
e 280 844
e 282 772
e 282 550
e 282 553
e 282 304
e 282 884
e 282 801
e 283 889
e 283 420
e 283 680
e 284 870
e 284 421
e 284 348
e 284 363
e 284 719
e 285 357
e 285 870
e 286 700
e 286 399
e 288 440
e 288 703
e 289 967
e 289 343
e 289 888
e 290 626
e 290 413
e 290 386
e 290 916
e 290 587
e 292 832
e 292 303
e 292 497
e 294 380
e 294 404
e 294 536
e 295 724
e 295 985
e 295 634
e 295 339
e 296 626
e 296 746
e 296 386
e 297 378
e 297 953
e 297 303
e 297 527
e 298 358
e 298 692
e 298 630
e 299 375
e 299 452
e 300 978
e 302 949
e 302 573
e 302 452
e 302 375
e 303 967
e 303 665
e 303 553
e 303 890
e 303 715
e 303 880
e 303 619
e 303 797
e 303 548
e 304 672
e 305 582
e 305 436
e 305 569
e 305 405
e 306 635
e 306 714
e 306 387
e 306 407
e 306 650
e 306 514
e 307 797
e 307 726
e 307 352
e 307 409
e 307 665
e 307 911
e 307 974
e 307 720
e 308 888
e 308 606
e 308 889
e 309 740
e 309 534
e 309 539
e 310 960
e 310 787
e 310 476
e 311 933
e 311 974
e 312 672
e 312 322
e 313 634
e 313 553
e 313 933
e 313 829
e 313 633
e 315 365
e 315 673
e 315 906
e 316 689
e 316 405
e 318 570
e 318 423
e 319 874
e 319 799
e 320 925
e 320 620
e 320 895
e 320 761
e 321 975
e 321 525
e 321 621
e 322 941
e 322 695
e 322 383
e 323 482
e 323 540
e 323 986
e 324 608
e 324 613
e 325 629
e 325 900
e 326 658
e 326 382
e 326 790
e 326 332
e 327 580
e 327 421
e 328 371
e 328 606
e 328 540
e 329 407
e 329 475
e 329 534
e 329 567
e 330 825
e 331 793
e 331 780
e 331 929
e 332 847
e 332 480
e 332 485
e 334 715
e 334 768
e 334 901
e 334 860
e 335 929
e 335 628
e 335 350
e 338 921
e 338 416
e 339 474
e 340 561
e 341 837
e 341 656
e 342 801
e 344 931
e 344 732
e 344 966
e 346 617
e 346 990
e 346 684
e 347 766
e 347 473
e 347 379
e 348 796
e 348 685
e 348 655
e 348 622
e 349 442
e 349 408
e 349 421
e 349 760
e 349 803
e 350 690
e 350 676
e 350 718
e 350 526
e 352 623
e 352 443
e 352 741
e 352 593
e 353 720
e 353 827
e 353 916
e 354 428
e 354 685
e 354 833
e 356 635
e 356 800
e 356 610
e 356 871
e 356 556
e 356 529
e 356 545
e 356 590
e 357 368
e 357 896
e 357 615
e 357 420
e 358 736
e 358 798
e 358 502
e 361 859
e 361 860
e 362 897
e 362 918
e 363 723
e 363 876
e 363 625
e 364 500
e 364 588
e 365 946
e 365 776
e 365 899
e 365 923
e 367 461
e 367 925
e 367 381
e 368 560
e 370 787
e 370 720
e 371 569
e 371 620
e 371 782
e 371 516
e 371 805
e 374 560
e 374 568
e 374 462
e 375 608
e 375 690
e 375 392
e 376 925
e 376 510
e 376 806
e 376 662
e 376 799
e 376 731
e 376 946
e 376 440
e 376 402
e 378 843
e 378 393
e 379 635
e 379 566
e 380 980
e 381 883
e 381 484
e 382 812
e 382 548
e 382 987
e 383 626
e 383 591
e 385 394
e 385 665
e 385 454
e 385 437
e 385 930
e 386 493
e 387 402
e 388 537
e 388 608
e 388 827
e 391 482
e 391 690
e 392 396
e 392 751
e 393 794
e 393 851
e 394 622
e 394 926
e 396 835
e 396 731
e 396 872
e 397 830
e 397 405
e 397 805
e 399 825
e 401 819
e 401 618
e 401 428
e 402 989
e 403 822
e 403 939
e 403 898
e 403 664
e 404 601
e 404 726
e 404 835
e 405 995
e 405 921
e 407 676
e 407 589
e 408 574
e 408 890
e 409 672
e 409 686
e 410 819
e 410 498
e 410 785
e 410 499
e 411 587
e 411 565
e 411 828
e 413 440
e 413 759
e 413 502
e 415 646
e 415 441
e 415 664
e 415 907
e 416 903
e 416 626
e 418 576
e 418 645
e 420 560
e 420 991
e 421 974
e 421 649
e 424 435
e 424 596
e 424 540
e 424 492
e 427 441
e 427 596
e 427 530
e 427 881
e 427 937
e 428 598
e 428 937
e 428 872
e 428 925
e 430 872
e 430 684
e 430 810
e 430 613
e 430 494
e 431 817
e 432 692
e 432 980
e 434 562
e 434 674
e 434 672
e 434 447
e 434 443
e 434 789
e 435 534
e 435 590
e 435 855
e 436 535
e 436 903
e 437 590
e 437 528
e 438 951
e 438 768
e 438 849
e 439 919
e 440 524
e 440 995
e 440 511
e 441 449
e 441 809
e 442 850
e 442 628
e 442 846
e 443 819
e 443 809
e 443 550
e 444 722
e 444 974
e 445 780
e 445 501
e 447 657
e 449 871
e 449 916
e 450 718
e 450 928
e 450 950
e 450 556
e 452 880
e 452 990
e 452 807
e 454 689
e 454 935
e 454 951
e 455 461
e 455 621
e 455 872
e 456 847
e 456 533
e 456 573
e 456 578
e 456 624
e 458 530
e 458 460
e 460 872
e 461 672
e 462 938
e 462 800
e 462 909
e 463 807
e 463 717
e 464 806
e 464 745
e 464 784
e 466 908
e 466 925
e 466 883
e 466 606
e 468 811
e 468 967
e 469 591
e 469 872
e 469 950
e 470 625
e 470 721
e 470 713
e 471 919
e 471 708
e 471 649
e 471 630
e 472 499
e 472 685
e 472 949
e 473 506
e 473 613
e 474 560
e 474 700
e 474 753
e 474 844
e 475 576
e 478 929
e 478 572
e 478 953
e 480 697
e 480 936
e 480 504
e 480 574
e 484 568
e 484 690
e 485 502
e 485 611
e 485 832
e 486 685
e 486 943
e 486 894
e 487 636
e 487 835
e 488 941
e 488 787
e 489 868
e 489 639
e 489 613
e 489 835
e 492 581
e 492 505
e 492 610
e 493 527
e 493 737
e 494 762
e 494 759
e 494 707
e 497 930
e 498 517
e 498 863
e 499 751
e 500 789
e 500 766
e 501 794
e 501 976
e 501 958
e 502 889
e 503 517
e 503 658
e 504 508
e 504 881
e 504 860
e 505 852
e 505 509
e 505 881
e 506 633
e 506 855
e 506 967
e 506 749
e 507 886
e 507 930
e 508 822
e 508 654
e 509 636
e 509 797
e 509 582
e 510 836
e 511 824
e 511 871
e 514 913
e 516 762
e 516 648
e 517 777
e 517 830
e 517 892
e 520 919
e 520 833
e 520 571
e 521 694
e 521 588
e 521 680
e 521 708
e 521 985
e 524 920
e 524 711
e 524 741
e 524 636
e 524 642
e 525 943
e 525 560
e 525 838
e 525 654
e 526 728
e 526 577
e 526 711
e 527 952
e 527 607
e 527 684
e 528 589
e 528 689
e 528 611
e 529 544
e 530 855
e 533 967
e 533 936
e 534 950
e 534 737
e 535 670
e 535 695
e 536 685
e 536 763
e 537 928
e 537 820
e 537 646
e 538 914
e 538 578
e 538 728
e 539 736
e 539 789
e 539 562
e 540 584
e 541 888
e 541 976
e 541 796
e 544 999
e 544 596
e 544 777
e 545 646
e 545 895
e 546 776
e 546 649
e 546 991
e 547 685
e 547 826
e 548 551
e 548 761
e 549 927
e 549 647
e 550 601
e 550 615
e 551 869
e 552 960
e 552 565
e 556 869
e 558 581
e 558 624
e 558 865
e 560 981
e 561 900
e 561 682
e 561 851
e 562 835
e 564 877
e 564 972
e 564 829
e 565 891
e 565 798
e 565 662
e 565 928
e 565 579
e 566 670
e 566 901
e 566 903
e 568 796
e 569 642
e 569 720
e 570 896
e 570 718
e 570 659
e 570 623
e 570 780
e 571 588
e 571 704
e 572 955
e 572 730
e 572 913
e 572 667
e 573 822
e 573 918
e 573 886
e 574 598
e 576 704
e 576 765
e 576 607
e 576 898
e 577 826
e 578 876
e 578 665
e 579 817
e 582 800
e 586 869
e 586 906
e 587 659
e 587 657
e 587 789
e 588 655
e 589 638
e 589 901
e 591 705
e 593 637
e 595 610
e 596 963
e 596 811
e 596 700
e 597 805
e 597 850
e 597 714
e 598 680
e 600 863
e 600 820
e 600 693
e 604 660
e 604 918
e 605 847
e 606 660
e 606 813
e 606 818
e 606 931
e 607 669
e 608 874
e 608 904
e 608 783
e 608 692
e 608 973
e 610 946
e 613 820
e 613 929
e 614 933
e 615 825
e 617 781
e 617 952
e 617 673
e 617 901
e 617 891
e 618 682
e 618 747
e 619 802
e 620 901
e 621 967
e 623 865
e 624 862
e 624 847
e 625 980
e 626 927
e 626 802
e 628 912
e 629 759
e 630 812
e 633 749
e 633 907
e 634 824
e 634 789
e 634 767
e 634 742
e 635 842
e 636 877
e 636 927
e 637 794
e 637 821
e 639 846
e 639 815
e 640 661
e 640 920
e 640 796
e 642 647
e 645 855
e 646 709
e 647 797
e 647 655
e 647 783
e 648 953
e 648 853
e 649 839
e 649 952
e 650 714
e 650 993
e 650 858
e 650 669
e 653 689
e 653 838
e 653 721
e 656 952
e 657 916
e 657 892
e 658 863
e 658 682
e 660 957
e 661 818
e 661 775
e 661 979
e 664 767
e 664 933
e 667 753
e 668 817
e 668 778
e 669 689
e 669 742
e 670 722
e 670 954
e 672 975
e 672 775
e 673 705
e 673 810
e 673 806
e 673 895
e 673 853
e 673 973
e 674 937
e 674 810
e 674 833
e 676 921
e 676 957
e 676 868
e 678 981
e 680 703
e 684 817
e 685 981
e 686 772
e 689 846
e 689 820
e 692 836
e 693 729
e 693 925
e 694 896
e 694 894
e 694 833
e 695 709
e 695 843
e 700 858
e 703 759
e 703 772
e 704 974
e 705 958
e 705 729
e 707 830
e 709 765
e 709 993
e 711 980
e 711 889
e 713 867
e 714 766
e 714 721
e 714 928
e 717 737
e 718 940
e 718 855
e 719 811
e 720 782
e 722 791
e 722 991
e 722 785
e 722 891
e 724 933
e 724 816
e 724 767
e 724 972
e 726 819
e 726 872
e 729 918
e 730 978
e 730 759
e 731 833
e 732 966
e 736 810
e 736 758
e 737 993
e 740 868
e 740 821
e 740 756
e 741 828
e 746 911
e 746 776
e 747 922
e 748 894
e 748 860
e 748 799
e 749 974
e 749 880
e 749 921
e 751 895
e 751 999
e 754 763
e 756 872
e 756 892
e 757 844
e 757 765
e 758 859
e 758 807
e 760 771
e 761 870
e 762 963
e 763 930
e 767 777
e 767 978
e 768 823
e 769 858
e 771 923
e 771 846
e 771 988
e 771 791
e 775 884
e 776 899
e 776 802
e 777 989
e 778 928
e 778 874
e 780 982
e 781 821
e 785 941
e 785 797
e 787 851
e 787 900
e 788 927
e 788 968
e 790 899
e 791 836
e 791 803
e 793 815
e 793 987
e 796 900
e 800 989
e 800 929
e 801 990
e 805 931
e 806 975
e 808 958
e 808 926
e 809 813
e 810 949
e 811 928
e 812 873
e 813 889
e 815 954
e 816 862
e 817 952
e 818 897
e 818 972
e 821 833
e 821 913
e 821 984
e 823 920
e 824 871
e 829 940
e 830 895
e 830 894
e 832 952
e 833 847
e 835 936
e 837 900
e 837 919
e 838 957
e 838 988
e 839 987
e 839 873
e 842 980
e 842 935
e 843 987
e 847 883
e 849 925
e 852 872
e 852 926
e 865 884
e 865 929
e 867 911
e 867 922
e 869 991
e 873 920
e 876 890
e 876 914
e 883 993
e 883 950
e 884 922
e 888 988
e 890 979
e 891 982
e 897 911
e 901 937
e 903 951
e 909 987
e 909 950
e 912 987
e 913 980
e 923 931
e 924 955
e 929 960
e 931 936
e 931 979
e 937 964
e 937 976
e 938 984
e 949 960
e 967 991
e 975 989
e 980 981
